NAME : amz1510.118974_118974.tour
COMMENT : Cost = 118974_118974
COMMENT : Found by LKH-AMZ [Keld Helsgaun] Sun May 11 13:16:10 2025
COMMENT : TW viol.: 0 #: 0
TYPE : TOUR
DIMENSION : 154
TOUR_SECTION
100
74
31
72
27
90
8
49
28
13
65
153
98
146
141
61
77
18
127
113
104
70
134
125
22
124
145
16
36
86
64
122
55
129
63
103
47
89
143
50
2
26
101
21
68
17
1
123
140
95
6
83
91
45
115
51
11
147
121
116
35
117
96
32
71
82
154
42
99
48
112
139
15
25
7
24
107
76
43
41
39
10
94
106
58
102
136
111
97
78
66
12
30
40
135
92
105
62
75
79
5
60
81
23
59
126
119
152
57
84
88
149
29
130
110
37
151
132
69
128
148
73
44
137
87
80
150
34
67
53
109
93
131
4
133
19
9
85
142
20
3
54
14
108
56
52
144
38
118
114
138
46
33
120
-1
EOF
